minizinc/sudoku_problems2/sudoku_p84.dzn
%
% sudoku_p84.dzn
% See http://www.hakank.org/minizinc/sudoku_gcc.mzn
% 
% This problem is problem 84 from
% Gecode's sudoku.cpp
% http://www.gecode.org/gecode-doc-latest/sudoku_8cpp-source.html
% 
x = array2d(1..n, 1..n, [   
% http://janko.at/Raetsel/Sudoku/596.a.htm
% 84
 11,  6,  2,  _,  _,  _,  9,  _,  _,  _,  1,  _,  _,  _, 16,  7,
 12,  _,  _,  _,  _,  _,  7,  _,  6,  _,  _, 10,  _,  1,  _,  9,
  _,  1,  _,  _,  _,  _, 10,  8,  _,  _,  7,  _,  2,  _,  _,  3,
  _,  _, 10,  8,  3,  1,  _, 12, 16,  2,  _,  _, 14,  _,  _,  _,
  _,  8,  _,  _,  9,  2,  _, 10,  _,  _, 16, 13,  4,  _,  _,  _,
 16,  _, 12,  _, 13,  8,  _,  _, 15,  _,  5,  2,  9,  _,  _,  _,
  _,  _,  _,  4,  _,  _,  _,  _,  _,  _,  _,  _,  _, 13,  6, 10,
  _,  5,  _, 11,  _, 12,  _,  1,  7,  _,  _,  3, 16,  8,  _,  _,
  _,  _, 14,  1,  2,  _,  _,  9, 13,  _, 11,  _,  6,  _,  8,  _,
  9, 12,  7,  _,  _,  _,  _,  _,  _,  _,  _,  _,  5,  _,  _,  _,
  _,  _,  _, 10,  5,  4,  _,  7,  _,  _,  2, 12,  _, 15,  _, 16,
  _,  _,  _, 15, 12, 13,  _,  _,  4,  _, 10,  5,  _,  _,  9,  _,
  _,  _,  _,  9,  _,  _,  1, 14,  2,  _, 15,  8,  3, 12,  _,  _,
  1,  _,  _,  7,  _,  9,  _,  _, 10,  3,  _,  _,  _,  _, 13,  _,
  2,  _,  3,  _,  8,  _,  _, 11,  _,  5,  _,  _,  _,  _,  _,  6,
 14, 11,  _,  _,  _,  3,  _,  _,  _,  7,  _,  _,  _, 16,  1,  2
]);

n = 16;


